2868
6253
5708
5675
7876
8149
3794
8124
2919
1594
9124
6839
7531
1294
6054
4064
7546
2290
8681
9846
3865
8923
10031
3880
5459
1992
9796
4148
6864
9895
6220
4786
10164
6202
883
3064
6225
2775
6430
7511
4988
9701
9993
8034
1386
6033
1916
7526
1421
6514
1191
